NAME          COPTPROB
OBJSENSE
  MIN
ROWS
 N  __OBJ___
 L  C92     
 L  C105    
 L  C114    
 L  C147    
 L  C162    
COLUMNS
    MARKER    'MARKER'                 'INTORG'
    x1546     __OBJ___  1
    x1546     C92       -1
    x1546     C105      -1
    x2107     __OBJ___  54
    x2107     C147      -1
    x2107     C162      -1
    x2374     __OBJ___  41
    x2374     C92       -1
    x2374     C114      -1
    x2452     __OBJ___  40
    x2452     C105      -1
    x2452     C147      -1
    x2525     __OBJ___  84
    x2525     C114      -1
    x2525     C162      -1
    MARKER    'MARKER'                 'INTEND'
RHS
    RHS       __OBJ___  -5359
    RHS       C92       -1
    RHS       C105      -1
    RHS       C114      -1
    RHS       C147      -1
    RHS       C162      -1
BOUNDS
 UP BOUND     x1546     1
 UP BOUND     x2107     1
 UP BOUND     x2374     1
 UP BOUND     x2452     1
 UP BOUND     x2525     1
ENDATA
